(set-logic HORN)
(declare-fun array_quick_sort@summary ((Array Int Int) Int Int Int ) Bool)
(declare-fun array_quick_sort@pre ((Array Int Int) Int Int Int ) Bool)
(declare-fun lomuto_array_partition@summary ((Array Int Int) Int Int Int Int (Array Int Int) ) Bool)
(declare-fun lomuto_array_partition@pre ((Array Int Int) Int Int Int ) Bool)
(declare-fun !inv0 ((Array Int Int) Int Int Int (Array Int Int) Int Int Int ) Bool)
(assert (forall ((.array@0 (Array Int Int))(start@0 Int)(.array!size@0 Int)(end@0 Int)(array@0 (Array Int Int))(pivot@0 Int)(i@0 Int)(j@0 Int)) (=> (and (lomuto_array_partition@pre |array@0| |.array!size@0| |start@0| |end@0|) (= |.array@0| |array@0|) (= |pivot@0| (select |array@0| |end@0|)) (= |i@0| (- |start@0| 1)) (= |j@0| |start@0|)) (!inv0 |.array@0| |.array!size@0| |start@0| |end@0| |array@0| |pivot@0| |i@0| |j@0|))))
(assert (forall ((.array@0 (Array Int Int))(.array!size@0 Int)(start@0 Int)(end@0 Int)(array@0 (Array Int Int))(pivot@0 Int)(i@0 Int)(j@0 Int)(i@1 Int)(tmp1@0 Int)(array@1 (Array Int Int))(array@2 (Array Int Int))(!return@0 Int)) (=> (and (!inv0 |.array@0| |.array!size@0| |start@0| |end@0| |array@0| |pivot@0| |i@0| |j@0|) (not (<= |j@0| (- |end@0| 1))) (= |i@1| (+ |i@0| 1)) (= |tmp1@0| (select |array@0| |i@1|)) (= |array@1| (store |array@0| |i@1| (select |array@0| |end@0|))) (= |array@2| (store |array@1| |end@0| |tmp1@0|)) (= |!return@0| |i@1|)) (lomuto_array_partition@summary |.array@0| |.array!size@0| |start@0| |end@0| |!return@0| |array@2|))))
(assert (forall ((array@0 (Array Int Int))(.array!size@0 Int)(start@0 Int)(end@0 Int)) (=> (and (< |start@0| |end@0|) (array_quick_sort@pre |array@0| |.array!size@0| |start@0| |end@0|)) (lomuto_array_partition@pre |array@0| |.array!size@0| |start@0| |end@0|))))
(assert (forall ((!rtrnd0 Int)(array@0 (Array Int Int))(.array!size@0 Int)(start@0 Int)(end@0 Int)(pi@0 Int)(array@1 (Array Int Int))) (=> (and (lomuto_array_partition@summary |array@0| |.array!size@0| |start@0| |end@0| !rtrnd0 |array@1|) (lomuto_array_partition@pre |array@0| |.array!size@0| |start@0| |end@0|) (array_quick_sort@pre |array@0| |.array!size@0| |start@0| |end@0|) (< |start@0| |end@0|) (= |pi@0| !rtrnd0)) (array_quick_sort@pre |array@1| |.array!size@0| |start@0| (- |pi@0| 1)))))
(assert (forall ((!rtrnd0 Int)(array@0 (Array Int Int))(.array!size@0 Int)(start@0 Int)(end@0 Int)(pi@0 Int)(array@1 (Array Int Int))) (=> (and (array_quick_sort@summary |array@1| |.array!size@0| |start@0| (- |pi@0| 1)) (array_quick_sort@pre |array@1| |.array!size@0| |start@0| (- |pi@0| 1)) (lomuto_array_partition@summary |array@0| |.array!size@0| |start@0| |end@0| !rtrnd0 |array@1|) (lomuto_array_partition@pre |array@0| |.array!size@0| |start@0| |end@0|) (array_quick_sort@pre |array@0| |.array!size@0| |start@0| |end@0|) (< |start@0| |end@0|) (= |pi@0| !rtrnd0)) (array_quick_sort@pre |array@1| |.array!size@0| (+ |pi@0| 1) |end@0|))))
(assert (forall ((N@0 Int)(array@0 (Array Int Int))) (=> (> |N@0| 0) (array_quick_sort@pre |array@0| |N@0| 0 (- |N@0| 1)))))
(assert (forall ((N@0 Int)(array@0 (Array Int Int))) (=> (and (array_quick_sort@summary |array@0| |N@0| 0 (- |N@0| 1)) (array_quick_sort@pre |array@0| |N@0| 0 (- |N@0| 1)) (> |N@0| 0) (not (forall ((k@0 Int)(l@0 Int)) (=> (and (<= 0 |k@0|) (< |k@0| (- |N@0| 1))) (=> (and (<= (+ |k@0| 1) |l@0|) (< |l@0| |N@0|)) (<= (select |array@0| |k@0|) (select |array@0| |l@0|))))))) false)))
(assert (forall ((!rtrnd0 Int)(array@0 (Array Int Int))(.array!size@0 Int)(start@0 Int)(end@0 Int)(pi@0 Int)(array@1 (Array Int Int))) (=> (and (array_quick_sort@summary |array@0| |.array!size@0| (+ |pi@0| 1) |end@0|) (array_quick_sort@pre |array@0| |.array!size@0| (+ |pi@0| 1) |end@0|) (array_quick_sort@summary |array@0| |.array!size@0| |start@0| (- |pi@0| 1)) (array_quick_sort@pre |array@0| |.array!size@0| |start@0| (- |pi@0| 1)) (lomuto_array_partition@summary |array@1| |.array!size@0| |start@0| |end@0| !rtrnd0 |array@0|) (lomuto_array_partition@pre |array@1| |.array!size@0| |start@0| |end@0|) (array_quick_sort@pre |array@1| |.array!size@0| |start@0| |end@0|) (< |start@0| |end@0|) (= |pi@0| !rtrnd0)) (array_quick_sort@summary |array@0| |.array!size@0| |start@0| |end@0|))))
(assert (forall ((.array@0 (Array Int Int))(.array!size@0 Int)(start@0 Int)(end@0 Int)(array@0 (Array Int Int))(pivot@0 Int)(i@0 Int)(j@0 Int)(j@1 Int)(tmp@0 Int)(i@1 Int)(array@1 (Array Int Int))(array@2 (Array Int Int))) (=> (and (!inv0 |.array@0| |.array!size@0| |start@0| |end@0| |array@1| |pivot@0| |i@1| |j@0|) (= |j@1| (+ |j@0| 1)) (<= |j@0| (- |end@0| 1)) (<= (select |array@1| |j@0|) |pivot@0|) (= |i@0| (+ |i@1| 1)) (= |tmp@0| (select |array@1| |j@0|)) (= |array@2| (store |array@1| |j@0| (select |array@1| |i@0|))) (= |array@0| (store |array@2| |i@0| |tmp@0|))) (!inv0 |.array@0| |.array!size@0| |start@0| |end@0| |array@0| |pivot@0| |i@0| |j@1|))))
(assert (forall ((array@0 (Array Int Int))(.array!size@0 Int)(start@0 Int)(end@0 Int)) (=> (and (not (< |start@0| |end@0|)) (array_quick_sort@pre |array@0| |.array!size@0| |start@0| |end@0|)) (array_quick_sort@summary |array@0| |.array!size@0| |start@0| |end@0|))))
(assert (forall ((.array@0 (Array Int Int))(.array!size@0 Int)(start@0 Int)(end@0 Int)(array@0 (Array Int Int))(pivot@0 Int)(i@0 Int)(j@0 Int)(j@1 Int)) (=> (and (!inv0 |.array@0| |.array!size@0| |start@0| |end@0| |array@0| |pivot@0| |i@0| |j@0|) (= |j@1| (+ |j@0| 1)) (<= |j@0| (- |end@0| 1)) (not (<= (select |array@0| |j@0|) |pivot@0|))) (!inv0 |.array@0| |.array!size@0| |start@0| |end@0| |array@0| |pivot@0| |i@0| |j@1|))))
(check-sat)